GLPSOL: GLPK LP/MIP Solver, v4.55
Parameter(s) specified in the command line:
 -m tmp.mod
Reading model section from tmp.mod...
Reading data section from tmp.mod...
1885 lines were read
Generating obj...
Generating kirhoff...
Generating init_charge...
Generating batt_size...
Model has been successfully generated
GLPK Simplex Optimizer, v4.55
2827 rows, 3069 columns, 6210 non-zeros
Preprocessing...
1685 rows, 2997 columns, 6102 non-zeros
Scaling...
 A: min|aij| =  1.000e+00  max|aij| =  1.000e+00  ratio =  1.000e+00
Problem data seem to be well scaled
Constructing initial basis...
Size of triangular part is 1218
      0: obj =   0.000000000e+00  infeas =  4.640e+02 (467)
*   323: obj =   2.700000000e+01  infeas =  0.000e+00 (378)
*   425: obj =   2.000000000e+00  infeas =  0.000e+00 (368)
OPTIMAL LP SOLUTION FOUND
Time used:   0.0 secs
Memory used: 6.6 Mb (6895610 bytes)
#OUTPUT:
2
0 0 0 0 0 2 -4 0 0 0 0 0 0 0 0 0 4 0 0 0 0 -1 0 -1 0 0 0 0 0 0 0 0 0 0 0 0 -1 0 0 0 0 0 0 0 -4 0 0 0 0 0 0 0 4 0 0 0 0 -4 0 0 0 0 0 0 0 0 0 0 0 0 0 0 0 0 0 0 0 0 0 0 0 0 0 0 0 0 0 0 0 0 0 1 1 0 0 0 -4 4 0 0 0 0 0 0 0 0 0 0 0 0 0 0 0 0 0 0 0 0 0 0 0 0 0 0 0 0 0 0 0 0 0 0 0 0 0 0 0 0 0 0 0 0 0 0 0 0 0 0 0 0 0 0 0 0 0 0 0 0 0 0 0 0 0 0 0 
-16 -2 0 -2 3 -14 -7 -3 -9 -13 1 0 -11 2 0 0 -2 0 2 2 0 -1 -1 -9 -7 0 0 -3 2 0 -1 2 -1 1 1 0 0 -9 0 0 0 0 0 0 -1 2 0 0 0 0 0 2 -5 0 0 1 0 -1 0 0 0 -7 0 0 0 1 0 0 0 -1 0 -1 -3 1 0 -9 0 0 -2 0 -1 0 0 0 0 -1 1 0 0 0 0 1 2 -3 -3 -1 5 1 -1 1 0 1 2 -1 0 9 -13 2 -1 1 -1 0 0 0 0 0 0 0 0 0 0 0 0 0 0 0 0 0 0 0 0 0 0 0 0 0 0 0 0 0 0 0 0 0 0 0 0 0 0 0 0 0 0 0 0 0 0 0 0 0 0 0 0 0 0 
-1 0 0 0 0 5 -4 0 0 0 0 0 0 0 0 0 4 0 0 0 0 0 0 0 0 0 0 0 0 0 0 0 0 0 0 0 1 0 0 0 0 0 0 0 -4 0 0 0 1 0 0 0 4 0 0 0 0 -4 0 0 0 0 0 0 0 0 0 0 0 0 0 0 0 0 0 0 0 0 0 0 0 0 0 0 0 0 0 0 0 0 0 0 0 0 0 -1 -4 4 0 0 0 0 0 0 0 0 0 0 0 0 0 0 0 0 0 0 0 0 0 0 0 0 0 0 0 0 0 0 0 0 0 0 0 0 0 0 0 0 0 0 0 0 0 0 0 0 0 0 0 0 0 0 0 0 0 0 0 0 0 0 0 0 0 0 0 
-12 -5 -3 -2 -4 -17 -7 -2 0 -2 0 0 0 0 0 -1 3 0 -1 0 0 0 -1 -15 -15 0 0 -3 3 0 0 0 -1 0 0 0 -1 1 0 0 0 0 0 0 -4 0 0 0 5 0 0 0 -1 0 0 0 0 -4 0 0 0 0 0 0 0 0 0 0 0 0 0 -3 -1 0 0 1 0 0 2 0 -1 0 0 0 0 0 0 0 0 0 0 0 0 1 0 -5 1 4 0 0 0 3 3 0 0 -1 -2 -1 2 0 0 0 0 0 0 0 0 0 0 0 0 0 0 0 0 0 0 0 0 0 0 0 0 0 0 0 0 0 0 0 0 0 0 0 0 0 0 0 0 0 0 0 0 0 0 0 0 0 0 0 0 0 0 0 0 
-4 -3 0 0 0 -17 -3 0 0 0 0 0 0 0 0 0 0 0 0 0 -3 0 0 -16 0 0 -3 -3 0 0 -5 0 0 0 0 0 -1 0 0 -3 0 0 0 0 0 0 0 0 0 0 0 0 0 0 0 0 0 0 0 0 0 0 0 0 0 -1 0 0 0 0 -6 1 0 1 0 0 0 0 0 0 0 0 0 0 0 1 0 0 0 0 0 0 1 0 0 -1 0 0 1 0 -3 -1 0 -1 0 0 0 0 0 -1 0 0 0 0 0 0 0 0 0 0 0 0 0 0 0 0 0 0 0 0 0 0 0 0 0 0 0 0 0 0 0 0 0 0 0 0 0 0 0 0 0 0 0 0 0 0 0 0 0 0 0 0 0 0 0 
-16 -2 0 1 0 3 -6 1 0 -15 0 -16 0 0 0 0 4 0 0 0 -3 0 0 0 0 0 -3 0 0 -16 0 1 0 0 0 0 -1 0 -1 0 0 0 0 0 -4 1 0 0 -1 -16 0 0 4 0 0 0 0 -4 0 0 0 0 0 0 0 0 0 0 0 -1 0 0 0 0 0 0 0 0 -1 0 0 0 0 0 0 0 0 0 0 0 0 0 0 0 -2 1 -4 4 0 1 0 0 0 0 0 0 1 0 0 0 0 0 0 0 0 0 0 0 0 0 0 0 0 0 0 0 0 0 0 0 0 0 0 0 0 0 0 0 0 0 0 0 0 0 0 0 0 0 0 0 0 0 0 0 0 0 0 0 0 0 0 0 0 0 0 
-12 -10 -3 0 -4 -17 -8 0 0 -2 0 0 0 0 0 0 -8 0 -2 0 -7 0 0 -14 -15 0 0 -2 -15 0 0 2 0 0 0 0 1 0 0 0 0 -7 0 0 -4 2 0 0 0 0 0 0 -4 0 -7 0 0 -4 0 0 0 0 0 0 0 0 0 0 0 0 0 -1 3 0 0 0 0 0 2 0 -1 0 0 0 0 -1 0 0 0 0 0 0 -1 1 -2 0 4 4 0 0 0 1 0 0 0 0 -2 -2 3 1 0 0 0 0 0 0 0 0 0 0 0 0 0 0 0 0 0 0 0 0 0 0 0 0 0 0 0 0 0 0 0 0 0 0 0 0 0 0 0 0 0 0 0 0 0 0 0 0 0 0 0 0 0 0 0 
0 0 0 0 0 0 0 0 0 0 0 0 0 0 0 0 0 0 0 0 0 0 0 0 0 0 0 0 0 0 0 0 0 0 0 0 0 0 0 0 0 0 0 0 0 0 0 0 0 0 0 0 0 0 0 0 0 0 0 0 0 0 0 0 0 0 0 0 0 0 0 0 0 0 0 0 0 0 0 0 0 0 0 0 0 0 0 0 0 0 0 0 0 0 0 0 0 0 0 0 0 0 0 0 0 0 0 0 0 0 0 0 0 0 0 0 0 0 0 0 0 0 0 0 0 0 0 0 0 0 0 0 0 0 0 0 0 0 0 0 0 0 0 0 0 0 0 0 0 0 0 0 0 0 0 0 0 0 0 0 0 0 0 0 0 
-2 0 0 0 3 -3 -1 0 0 -2 0 0 0 0 0 0 0 0 0 0 0 0 0 0 0 0 0 0 0 0 0 0 0 0 0 0 0 0 -1 0 0 0 0 0 0 0 0 0 0 0 0 0 -3 0 0 0 0 0 0 0 0 0 0 0 0 0 0 0 0 -1 0 0 0 0 0 0 0 0 2 0 0 0 0 0 0 0 0 0 0 0 0 0 0 -3 -1 0 3 0 0 1 0 0 0 0 0 0 -2 0 0 0 0 0 0 0 0 0 0 0 0 0 0 0 0 0 0 0 0 0 0 0 0 0 0 0 0 0 0 0 0 0 0 0 0 0 0 0 0 0 0 0 0 0 0 0 0 0 0 0 0 0 0 0 0 0 0 
#OUTPUT END
Model has been successfully processed
